4	5	3		
3	1			
147	0	0	0	0
0	130	0	140	0
0	0	0	150	160
				
3	2			
214	0	150	0	0
0	66	87	0	0
0	0	0	0	178
				
3	1			
87	62	0	0	0
0	0	180	0	0
0	0	0	190	100
				
3	3			
87	65	0	0	0
0	0	0	0	173
0	0	136	145	0
